p cnf 36 140
c p weight 18 0 0
c p weight -18 1 0
c p weight 19 1.0 0
c p weight -19 1 0
14 -13 11 0
14 -13 12 0
-14 13 11 0
-14 13 12 0
14 13 -11 -12 0
-14 -13 -11 -12 0
15 11 -12 0
15 -11 12 0
-15 11 12 0
-15 -11 -12 0
16 17 -14 0
16 -14 15 0
-16 17 14 0
-16 14 15 0
16 -14 -11 0
-16 14 -11 0
16 -17 14 11 -15 0
-16 -17 -14 11 -15 0
17 -11 15 0
-17 11 15 0
-18 15 0
17 -18 -11 0
-17 -18 11 0
17 18 11 -15 0
-17 18 -11 -15 0
-19 15 0
17 -19 11 0
-17 -19 -11 0
17 19 -11 -15 0
-17 19 11 -15 0
20 -16 17 0
20 -16 15 0
-20 16 17 0
-20 16 15 0
20 16 -17 -15 0
-20 -16 -17 -15 0
21 17 -15 0
21 -17 15 0
-21 17 15 0
-21 -17 -15 0
22 -20 17 0
22 -20 10 0
-22 20 17 0
-22 20 10 0
22 -20 9 -21 0
22 -20 -9 21 0
-22 20 9 -21 0
-22 20 -9 21 0
22 20 -17 9 21 -10 0
22 20 -17 -9 -21 -10 0
-22 -20 -17 9 21 -10 0
-22 -20 -17 -9 -21 -10 0
24 17 -9 0
24 -17 9 0
-24 17 9 0
-24 -17 -9 0
23 21 -10 0
23 -21 10 0
-23 21 10 0
-23 -21 -10 0
25 -22 24 0
25 -22 8 0
-25 22 24 0
-25 22 8 0
25 -22 7 -10 0
25 -22 -7 10 0
-25 22 7 -10 0
-25 22 -7 10 0
25 22 -24 7 10 -8 0
25 22 -24 -7 -10 -8 0
-25 -22 -24 7 10 -8 0
-25 -22 -24 -7 -10 -8 0
27 24 -7 0
27 -24 7 0
-27 24 7 0
-27 -24 -7 0
26 10 -8 0
26 -10 8 0
-26 10 8 0
-26 -10 -8 0
28 -25 27 0
28 -25 6 0
-28 25 27 0
-28 25 6 0
28 -25 5 -8 0
28 -25 -5 8 0
-28 25 5 -8 0
-28 25 -5 8 0
28 25 -27 5 8 -6 0
28 25 -27 -5 -8 -6 0
-28 -25 -27 5 8 -6 0
-28 -25 -27 -5 -8 -6 0
30 27 -5 0
30 -27 5 0
-30 27 5 0
-30 -27 -5 0
29 8 -6 0
29 -8 6 0
-29 8 6 0
-29 -8 -6 0
31 -28 30 0
31 -28 4 0
-31 28 30 0
-31 28 4 0
31 -28 3 -6 0
31 -28 -3 6 0
-31 28 3 -6 0
-31 28 -3 6 0
31 28 -30 3 6 -4 0
31 28 -30 -3 -6 -4 0
-31 -28 -30 3 6 -4 0
-31 -28 -30 -3 -6 -4 0
33 30 -3 0
33 -30 3 0
-33 30 3 0
-33 -30 -3 0
32 6 -4 0
32 -6 4 0
-32 6 4 0
-32 -6 -4 0
34 -31 33 0
34 -31 2 0
-34 31 33 0
-34 31 2 0
34 -31 1 -4 0
34 -31 -1 4 0
-34 31 1 -4 0
-34 31 -1 4 0
34 31 -33 1 4 -2 0
34 31 -33 -1 -4 -2 0
-34 -31 -33 1 4 -2 0
-34 -31 -33 -1 -4 -2 0
36 33 -1 0
36 -33 1 0
-36 33 1 0
-36 -33 -1 0
35 4 -2 0
35 -4 2 0
-35 4 2 0
-35 -4 -2 0
